(set-logic QF_UFIDL)
(declare-fun ff.add (Int Int) Int)
(declare-fun ff.mul (Int Int) Int)
(declare-fun v_0_x_L5_C0 () Int)
(declare-fun v_1_ret_y_L5_C0 () Int)
(declare-fun v_1_x_L7_C4 () Int)
(declare-fun v_2_x_L7_C4 () Int)
(declare-fun v_3_x_L7_C4 () Int)
(declare-fun v_4_y_L9_C2 () Int)
(declare-fun v_5_foo_aux_0_L9_C2 () Int)
(assert (let ((.def_0 (= v_1_ret_y_L5_C0 v_4_y_L9_C2))) (let ((.def_1 (= v_4_y_L9_C2 v_5_foo_aux_0_L9_C2))) (let ((.def_2 (ff.mul 2 v_3_x_L7_C4))) (let ((.def_3 (= v_5_foo_aux_0_L9_C2 .def_2))) (let ((.def_4 (and .def_3 .def_1))) (let ((.def_5 (ff.add v_2_x_L7_C4 1))) (let ((.def_6 (= v_3_x_L7_C4 .def_5))) (let ((.def_7 (ff.add v_1_x_L7_C4 1))) (let ((.def_8 (= v_2_x_L7_C4 .def_7))) (let ((.def_9 (and .def_8 .def_6))) (let ((.def_10 (ff.add v_0_x_L5_C0 1))) (let ((.def_11 (= v_1_x_L7_C4 .def_10))) (let ((.def_12 (and .def_11 .def_9))) (let ((.def_13 (and .def_12 .def_4))) (let ((.def_14 (and .def_13 .def_0))) .def_14))))))))))))))))
(check-sat)
